p cnf 165 266

-1 -4 3 0
-5 6 7 -8 0
-5 6 -7 8 0
-9 -10 -11 0
-12 -11 -5 -1 0
-12 11 5 -1 0
-12 11 -5 1 0
12 11 -5 -1 0
12 11 5 1 0
12 -11 5 -1 0
13 14 -12 -15 0
13 -14 -12 15 0
-18 -14 -12 0
-18 -12 15 0
-19 -11 -5 0
-19 -5 1 0
19 11 -1 0
19 5 -1 0
-20 -23 22 0
24 25 -26 0
24 27 -26 0
36 37 -38 0
36 39 -38 0
40 41 0
42 41 0
-43 -41 44 45 0
-43 -41 -44 -45 0
-43 41 -44 45 0
43 -41 44 -45 0
46 47 0
48 47 0
-46 -48 -47 0
-49 -47 -43 -50 0
-49 47 43 -50 0
-49 47 -43 50 0
49 47 -43 -50 0
49 -47 -43 50 0
49 -47 43 -50 0
51 52 0
53 52 0
-51 -53 -52 0
-54 -52 -49 -55 0
-54 52 49 -55 0
-54 52 -49 55 0
54 -52 -49 55 0
54 -52 49 -55 0
9 56 0
-57 -56 54 58 0
-57 56 -54 58 0
57 56 -54 -58 0
57 -56 -54 58 0
-59 -60 57 61 0
-59 60 57 -61 0
59 60 57 61 0
59 -60 57 -61 0
-81 -80 -78 -82 0
-81 80 78 -82 0
-81 80 -78 82 0
-84 -83 81 36 0
-84 -83 -81 -36 0
-84 83 -81 36 0
84 83 81 36 0
84 -83 -81 36 0
-88 -87 85 28 0
-88 -87 -85 -28 0
-88 87 -85 28 0
-89 -90 88 24 0
-89 -90 -88 -24 0
-89 90 -88 24 0
89 90 88 24 0
89 -90 -88 24 0
-91 -92 -89 -93 0
-91 92 89 -93 0
-91 92 -89 93 0
53 94 0
-53 -51 -94 0
-95 -94 -91 -96 0
-95 94 -91 96 0
95 -94 -91 96 0
95 -94 91 -96 0
-48 -46 -97 0
-98 -97 -95 -99 0
-98 97 95 -99 0
-98 97 -95 99 0
98 -97 -95 99 0
-42 -40 -100 0
-101 -100 -98 -20 0
-101 100 98 -20 0
-101 100 -98 20 0
101 100 -98 -20 0
101 100 98 20 0
101 -100 98 -20 0
-102 103 -101 104 0
102 103 -101 -104 0
102 -103 -101 104 0
-108 -103 -101 0
-108 -101 104 0
-109 -100 -98 0
-109 -98 20 0
109 100 -20 0
109 98 -20 0
-110 -97 -95 0
-110 -97 99 0
-110 -95 99 0
110 97 95 0
-111 -94 96 0
-111 -91 96 0
111 94 91 0
-112 -88 24 0
112 88 -24 0
-113 -81 36 0
113 81 -36 0
114 57 -61 0
-115 -54 58 0
115 54 -58 0
-116 -52 -49 0
-116 -52 55 0
116 52 49 0
-117 -47 50 0
-118 -41 -44 0
-118 -41 45 0
-119 -120 -121 -122 0
-119 120 121 -122 0
-119 120 -121 122 0
46 123 0
42 123 0
-124 -123 119 118 0
-124 -123 -119 -118 0
-124 123 -119 118 0
124 123 -119 -118 0
124 123 119 118 0
124 -123 -119 118 0
51 125 0
48 125 0
-51 -48 -125 0
-126 -125 124 117 0
126 125 124 117 0
126 -125 124 -117 0
9 127 0
-128 -127 126 116 0
-128 -127 -126 -116 0
-129 -130 -131 0
-132 131 128 -115 0
132 131 -128 -115 0
132 131 128 115 0
132 -131 -128 115 0
132 -131 128 -115 0
-133 -134 132 114 0
-133 134 132 -114 0
133 134 132 114 0
133 -134 132 -114 0
-135 -136 -137 -138 0
-135 136 137 -138 0
-135 136 -137 138 0
10 139 0
-140 -139 -135 -113 0
-140 139 135 -113 0
-140 139 -135 113 0
140 139 -135 -113 0
140 -139 -135 113 0
140 -139 135 -113 0
-141 -142 -140 -143 0
-141 142 -140 143 0
141 142 -140 -143 0
141 -142 -140 143 0
-144 -145 -141 -146 0
-144 145 141 -146 0
-144 145 -141 146 0
130 147 0
129 147 0
-148 -147 -144 -112 0
-148 147 144 -112 0
-148 147 -144 112 0
148 147 -144 -112 0
148 -147 -144 112 0
148 -147 144 -112 0
-149 -150 -148 -151 0
-149 150 148 -151 0
-149 150 -148 151 0
149 150 -148 -151 0
149 -150 -148 151 0
48 152 0
-48 -51 -152 0
-153 -152 -149 -111 0
-153 152 149 -111 0
-153 152 -149 111 0
153 152 -149 -111 0
153 152 149 111 0
153 -152 -149 111 0
153 -152 149 -111 0
-42 -46 -154 0
-155 -154 -153 -110 0
-155 154 153 -110 0
155 154 -153 -110 0
155 154 153 110 0
155 -154 -153 110 0
155 -154 153 -110 0
-156 -157 -155 -109 0
-156 157 -155 109 0
156 157 -155 -109 0
156 -157 -155 109 0
-158 -157 -155 0
-158 -155 109 0
-159 -154 -153 0
-159 -153 110 0
159 153 -110 0
-160 -149 111 0
160 149 -111 0
-161 -148 151 0
-162 -144 112 0
-163 -140 143 0
-164 -135 113 0

